\ Model 2_christmas_trees
\ LP format - for model browsing. Use MPS format to capture full model detail.
\ Signature: 0x74837127cd52da0c
Minimize
  s
Subject To
 bound_x1_upper: x1 - s <= -3500
 bound_x2_upper: x2 - s <= -3500
 bound_y1_upper: y1 - s <= -8000
 bound_y2_upper: y2 - s <= -8000
 halfplane_0_0: - 2500 y1 + 2500 y2 + 4.0625e+07 v_0_0 <= 5e+07
 bottom_left_0_0: x1 - x2 + 16750 v_0_0 <= 13000
 bottom_right_0_0: - x1 + x2 + 6750 v_0_0 <= 13000
 halfplane_0_1: 1250 x1 - 3000 y1 - 1250 x2 + 3000 y2 + 8.15625e+07 v_0_1
   <= 8.5e+07
 bottom_left_0_1: x1 - x2 + 19250 v_0_1 <= 13000
 bottom_right_0_1: - x1 + x2 + 3750 v_0_1 <= 13000
 halfplane_0_2: 3000 x1 + 1250 y1 - 3000 x2 - 1250 y2 + 1.19e+08 v_0_2
   <= 8.5e+07
 top_left_0_2: x1 - x2 + 21000 v_0_2 <= 13000
 top_right_0_2: - x1 + x2 + 3750 v_0_2 <= 13000
 halfplane_0_3: 1250 x1 + 3000 y1 - 1250 x2 - 3000 y2 + 1.19e+08 v_0_3
   <= 8.5e+07
 top_left_0_3: x1 - x2 + 18000 v_0_3 <= 13000
 top_right_0_3: - x1 + x2 + 5000 v_0_3 <= 13000
 halfplane_0_4: - 3000 x1 + 1250 y1 + 3000 x2 - 1250 y2 + 8.15625e+07 v_0_4
   <= 8.5e+07
 top_left_0_4: x1 - x2 + 16750 v_0_4 <= 13000
 top_right_0_4: - x1 + x2 + 8000 v_0_4 <= 13000
 left_region_0: - x1 + x2 + 9250 v_l_0 <= 13000
 right_region_0: - x1 + x2 - 22250 v_r_0 >= -13000
 one_region_0: v_l_0 + v_r_0 + v_0_0 + v_0_1 + v_0_2 + v_0_3 + v_0_4 = 1
 halfplane_1_0: - 4000 y1 + 4000 y2 + 7.5e+07 v_1_0 <= 8e+07
 bottom_left_1_0: x1 - x2 + 16000 v_1_0 <= 13000
 bottom_right_1_0: - x1 + x2 + 6000 v_1_0 <= 13000
 halfplane_1_1: 1250 x1 - 3000 y1 - 1250 x2 + 3000 y2 + 9e+07 v_1_1
   <= 8.5e+07
 bottom_left_1_1: x1 - x2 + 20000 v_1_1 <= 13000
 bottom_right_1_1: - x1 + x2 + 3000 v_1_1 <= 13000
 halfplane_1_2: 2500 x1 + 1375 y1 - 2500 x2 - 1375 y2 + 1.059375e+08 v_1_2
   <= 7.75e+07
 top_left_1_2: x1 - x2 + 21625 v_1_2 <= 13000
 top_right_1_2: - x1 + x2 + 3000 v_1_2 <= 13000
 halfplane_1_3: 1250 x1 + 3000 y1 - 1250 x2 - 3000 y2
   + 1.1078125000000001e+08 v_1_3 <= 8.5e+07
 top_left_1_3: x1 - x2 + 18625 v_1_3 <= 13000
 top_right_1_3: - x1 + x2 + 4375 v_1_3 <= 13000
 halfplane_1_4: 1250 y1 - 1250 y2 + 3.28125e+07 v_1_4 <= 2.5e+07
 top_left_1_4: x1 - x2 + 17375 v_1_4 <= 13000
 top_right_1_4: - x1 + x2 + 7375 v_1_4 <= 13000
 halfplane_1_5: - 2500 x1 + 1375 y1 + 2500 x2 - 1375 y2
   + 7.515625e+07 v_1_5 <= 7.75e+07
 top_left_1_5: x1 - x2 + 16000 v_1_5 <= 13000
 top_right_1_5: - x1 + x2 + 8625 v_1_5 <= 13000
 left_region_1: - x1 + x2 + 10000 v_l_1 <= 13000
 right_region_1: - x1 + x2 - 23000 v_r_1 >= -13000
 one_region_1: v_l_1 + v_r_1 + v_1_0 + v_1_1 + v_1_2 + v_1_3 + v_1_4
   + v_1_5 = 1
 halfplane_2_0: - 7000 y1 + 7000 y2 + 1.4875e+08 v_2_0 <= 1.4e+08
 bottom_left_2_0: x1 - x2 + 14500 v_2_0 <= 13000
 bottom_right_2_0: - x1 + x2 + 4500 v_2_0 <= 13000
 halfplane_2_1: 1250 x1 - 3000 y1 - 1250 x2 + 3000 y2 + 9.9375e+07 v_2_1
   <= 8.5e+07
 bottom_left_2_1: x1 - x2 + 21500 v_2_1 <= 13000
 bottom_right_2_1: - x1 + x2 + 1500 v_2_1 <= 13000
 halfplane_2_2: 2500 x1 + 2500 y1 - 2500 x2 - 2500 y2 + 1.2875e+08 v_2_2
   <= 1e+08
 top_left_2_2: x1 - x2 + 22000 v_2_2 <= 13000
 top_right_2_2: - x1 + x2 + 1500 v_2_2 <= 13000
 halfplane_2_3: 1250 x1 + 3000 y1 - 1250 x2 - 3000 y2 + 1.0375e+08 v_2_3
   <= 8.5e+07
 top_left_2_3: x1 - x2 + 19000 v_2_3 <= 13000
 top_right_2_3: - x1 + x2 + 4000 v_2_3 <= 13000
 halfplane_2_4: 2000 y1 - 2000 y2 + 4.75e+07 v_2_4 <= 4e+07
 top_left_2_4: x1 - x2 + 17000 v_2_4 <= 13000
 top_right_2_4: - x1 + x2 + 7000 v_2_4 <= 13000
 halfplane_2_5: - 2500 x1 + 2500 y1 + 2500 x2 - 2500 y2 + 9.9375e+07 v_2_5
   <= 1e+08
 top_left_2_5: x1 - x2 + 14500 v_2_5 <= 13000
 top_right_2_5: - x1 + x2 + 9000 v_2_5 <= 13000
 left_region_2: - x1 + x2 + 11500 v_l_2 <= 13000
 right_region_2: - x1 + x2 - 24500 v_r_2 >= -13000
 one_region_2: v_l_2 + v_r_2 + v_2_0 + v_2_1 + v_2_2 + v_2_3 + v_2_4
   + v_2_5 = 1
 halfplane_3_0: - 1500 y1 + 1500 y2 + 3.4875e+07 v_3_0 <= 3e+07
 bottom_left_3_0: x1 - x2 + 17250 v_3_0 <= 13000
 bottom_right_3_0: - x1 + x2 + 7250 v_3_0 <= 13000
 halfplane_3_1: 1250 x1 - 3000 y1 - 1250 x2 + 3000 y2 + 1.019375e+08 v_3_1
   <= 8.5e+07
 bottom_left_3_1: x1 - x2 + 18750 v_3_1 <= 13000
 bottom_right_3_1: - x1 + x2 + 4250 v_3_1 <= 13000
 halfplane_3_3: 1250 x1 + 3000 y1 - 1250 x2 - 3000 y2 + 9.59375e+07 v_3_3
   <= 8.5e+07
 top_left_3_3: x1 - x2 + 18750 v_3_3 <= 13000
 top_right_3_3: - x1 + x2 + 4250 v_3_3 <= 13000
 halfplane_3_4: 1500 y1 - 1500 y2 + 3.1875e+07 v_3_4 <= 3e+07
 top_left_3_4: x1 - x2 + 17250 v_3_4 <= 13000
 top_right_3_4: - x1 + x2 + 7250 v_3_4 <= 13000
 left_region_3: - x1 + x2 + 8750 v_l_3 <= 13000
 right_region_3: - x1 + x2 - 21750 v_r_3 >= -13000
 one_region_3: v_l_3 + v_r_3 + v_3_0 + v_3_1 + v_3_3 + v_3_4 = 1
 halfplane_4_0: - 2500 y1 + 2500 y2 + 4.25e+07 v_4_0 <= 5e+07
 bottom_left_4_0: x1 - x2 + 14250 v_4_0 <= 13000
 bottom_right_4_0: - x1 + x2 + 9250 v_4_0 <= 13000
 halfplane_4_1: 1375 x1 - 2500 y1 - 1375 x2 + 2500 y2 + 7.515625e+07 v_4_1
   <= 7.75e+07
 bottom_left_4_1: x1 - x2 + 16750 v_4_1 <= 13000
 bottom_right_4_1: - x1 + x2 + 6750 v_4_1 <= 13000
 halfplane_4_3: 3000 x1 + 1250 y1 - 3000 x2 - 1250 y2 + 1.1078125e+08 v_4_3
   <= 8.5e+07
 top_left_4_3: x1 - x2 + 18000 v_4_3 <= 13000
 top_right_4_3: - x1 + x2 + 6750 v_4_3 <= 13000
 halfplane_4_4: 1375 x1 + 2500 y1 - 1375 x2 - 2500 y2 + 1.059375e+08 v_4_4
   <= 7.75e+07
 top_left_4_4: x1 - x2 + 15500 v_4_4 <= 13000
 top_right_4_4: - x1 + x2 + 8000 v_4_4 <= 13000
 halfplane_4_5: - 3000 x1 + 1250 y1 + 3000 x2 - 1250 y2 + 9e+07 v_4_5
   <= 8.5e+07
 top_left_4_5: x1 - x2 + 14250 v_4_5 <= 13000
 top_right_4_5: - x1 + x2 + 10500 v_4_5 <= 13000
 left_region_4: - x1 + x2 + 11750 v_l_4 <= 13000
 right_region_4: - x1 + x2 - 19250 v_r_4 >= -13000
 one_region_4: v_l_4 + v_r_4 + v_4_0 + v_4_1 + v_4_3 + v_4_4 + v_4_5 = 1
 halfplane_5_0: - 4000 y1 + 4000 y2 + 7.8e+07 v_5_0 <= 8e+07
 bottom_left_5_0: x1 - x2 + 13500 v_5_0 <= 13000
 bottom_right_5_0: - x1 + x2 + 8500 v_5_0 <= 13000
 halfplane_5_1: 1375 x1 - 2500 y1 - 1375 x2 + 2500 y2 + 8.24375e+07 v_5_1
   <= 7.75e+07
 bottom_left_5_1: x1 - x2 + 17500 v_5_1 <= 13000
 bottom_right_5_1: - x1 + x2 + 6000 v_5_1 <= 13000
 halfplane_5_3: 2500 x1 + 1375 y1 - 2500 x2 - 1375 y2 + 9.9296875e+07 v_5_3
   <= 7.75e+07
 top_left_5_3: x1 - x2 + 18625 v_5_3 <= 13000
 top_right_5_3: - x1 + x2 + 6000 v_5_3 <= 13000
 halfplane_5_4: 1375 x1 + 2500 y1 - 1375 x2 - 2500 y2 + 9.9296875e+07 v_5_4
   <= 7.75e+07
 top_left_5_4: x1 - x2 + 16125 v_5_4 <= 13000
 top_right_5_4: - x1 + x2 + 7375 v_5_4 <= 13000
 halfplane_5_5: 1250 y1 - 1250 y2 + 3.375e+07 v_5_5 <= 2.5e+07
 top_left_5_5: x1 - x2 + 14875 v_5_5 <= 13000
 top_right_5_5: - x1 + x2 + 9875 v_5_5 <= 13000
 halfplane_5_6: - 2500 x1 + 1375 y1 + 2500 x2 - 1375 y2 + 8.24375e+07 v_5_6
   <= 7.75e+07
 top_left_5_6: x1 - x2 + 13500 v_5_6 <= 13000
 top_right_5_6: - x1 + x2 + 11125 v_5_6 <= 13000
 left_region_5: - x1 + x2 + 12500 v_l_5 <= 13000
 right_region_5: - x1 + x2 - 20000 v_r_5 >= -13000
 one_region_5: v_l_5 + v_r_5 + v_5_0 + v_5_1 + v_5_3 + v_5_4 + v_5_5
   + v_5_6 = 1
 halfplane_6_0: - 7000 y1 + 7000 y2 + 1.54e+08 v_6_0 <= 1.4e+08
 bottom_left_6_0: x1 - x2 + 12000 v_6_0 <= 13000
 bottom_right_6_0: - x1 + x2 + 7000 v_6_0 <= 13000
 halfplane_6_1: 1375 x1 - 2500 y1 - 1375 x2 + 2500 y2 + 9.075e+07 v_6_1
   <= 7.75e+07
 bottom_left_6_1: x1 - x2 + 19000 v_6_1 <= 13000
 bottom_right_6_1: - x1 + x2 + 4500 v_6_1 <= 13000
 halfplane_6_3: 2500 x1 + 2500 y1 - 2500 x2 - 2500 y2 + 1.228125e+08 v_6_3
   <= 1e+08
 top_left_6_3: x1 - x2 + 19000 v_6_3 <= 13000
 top_right_6_3: - x1 + x2 + 4500 v_6_3 <= 13000
 halfplane_6_4: 1375 x1 + 2500 y1 - 1375 x2 - 2500 y2 + 9.35625e+07 v_6_4
   <= 7.75e+07
 top_left_6_4: x1 - x2 + 16500 v_6_4 <= 13000
 top_right_6_4: - x1 + x2 + 7000 v_6_4 <= 13000
 halfplane_6_5: 2000 y1 - 2000 y2 + 4.9e+07 v_6_5 <= 4e+07
 top_left_6_5: x1 - x2 + 14500 v_6_5 <= 13000
 top_right_6_5: - x1 + x2 + 9500 v_6_5 <= 13000
 halfplane_6_6: - 2500 x1 + 2500 y1 + 2500 x2 - 2500 y2 + 1.075e+08 v_6_6
   <= 1e+08
 top_left_6_6: x1 - x2 + 12000 v_6_6 <= 13000
 top_right_6_6: - x1 + x2 + 11500 v_6_6 <= 13000
 left_region_6: - x1 + x2 + 14000 v_l_6 <= 13000
 right_region_6: - x1 + x2 - 21500 v_r_6 >= -13000
 one_region_6: v_l_6 + v_r_6 + v_6_0 + v_6_1 + v_6_3 + v_6_4 + v_6_5
   + v_6_6 = 1
 halfplane_7_0: - 1500 y1 + 1500 y2 + 3.6e+07 v_7_0 <= 3e+07
 bottom_left_7_0: x1 - x2 + 14750 v_7_0 <= 13000
 bottom_right_7_0: - x1 + x2 + 9750 v_7_0 <= 13000
 halfplane_7_1: 1375 x1 - 2500 y1 - 1375 x2 + 2500 y2 + 9.196875e+07 v_7_1
   <= 7.75e+07
 bottom_left_7_1: x1 - x2 + 16250 v_7_1 <= 13000
 bottom_right_7_1: - x1 + x2 + 7250 v_7_1 <= 13000
 halfplane_7_3: 1375 x1 + 2500 y1 - 1375 x2 - 2500 y2 + 8.696875e+07 v_7_3
   <= 7.75e+07
 top_left_7_3: x1 - x2 + 16250 v_7_3 <= 13000
 top_right_7_3: - x1 + x2 + 7250 v_7_3 <= 13000
 halfplane_7_4: 1500 y1 - 1500 y2 + 3.3e+07 v_7_4 <= 3e+07
 top_left_7_4: x1 - x2 + 14750 v_7_4 <= 13000
 top_right_7_4: - x1 + x2 + 9750 v_7_4 <= 13000
 left_region_7: - x1 + x2 + 11250 v_l_7 <= 13000
 right_region_7: - x1 + x2 - 18750 v_r_7 >= -13000
 one_region_7: v_l_7 + v_r_7 + v_7_0 + v_7_1 + v_7_3 + v_7_4 = 1
 halfplane_8_0: - 2500 y1 + 2500 y2 + 4.625e+07 v_8_0 <= 5e+07
 bottom_left_8_0: x1 - x2 + 11750 v_8_0 <= 13000
 bottom_right_8_0: - x1 + x2 + 11750 v_8_0 <= 13000
 halfplane_8_1: 2500 x1 - 2500 y1 - 2500 x2 + 2500 y2 + 9.9375e+07 v_8_1
   <= 1e+08
 bottom_left_8_1: x1 - x2 + 14250 v_8_1 <= 13000
 bottom_right_8_1: - x1 + x2 + 9250 v_8_1 <= 13000
 halfplane_8_3: 3000 x1 + 1250 y1 - 3000 x2 - 1250 y2 + 1.0375e+08 v_8_3
   <= 8.5e+07
 top_left_8_3: x1 - x2 + 15500 v_8_3 <= 13000
 top_right_8_3: - x1 + x2 + 9250 v_8_3 <= 13000
 halfplane_8_4: 2500 x1 + 2500 y1 - 2500 x2 - 2500 y2 + 1.2875e+08 v_8_4
   <= 1e+08
 top_left_8_4: x1 - x2 + 13000 v_8_4 <= 13000
 top_right_8_4: - x1 + x2 + 10500 v_8_4 <= 13000
 halfplane_8_5: - 3000 x1 + 1250 y1 + 3000 x2 - 1250 y2 + 9.9375e+07 v_8_5
   <= 8.5e+07
 top_left_8_5: x1 - x2 + 11750 v_8_5 <= 13000
 top_right_8_5: - x1 + x2 + 13000 v_8_5 <= 13000
 left_region_8: - x1 + x2 + 14250 v_l_8 <= 13000
 right_region_8: - x1 + x2 - 16750 v_r_8 >= -13000
 one_region_8: v_l_8 + v_r_8 + v_8_0 + v_8_1 + v_8_3 + v_8_4 + v_8_5 = 1
 halfplane_9_0: - 4000 y1 + 4000 y2 + 8.4e+07 v_9_0 <= 8e+07
 bottom_left_9_0: x1 - x2 + 11000 v_9_0 <= 13000
 bottom_right_9_0: - x1 + x2 + 11000 v_9_0 <= 13000
 halfplane_9_1: 2500 x1 - 2500 y1 - 2500 x2 + 2500 y2 + 1.075e+08 v_9_1
   <= 1e+08
 bottom_left_9_1: x1 - x2 + 15000 v_9_1 <= 13000
 bottom_right_9_1: - x1 + x2 + 8500 v_9_1 <= 13000
 halfplane_9_3: 2500 x1 + 1375 y1 - 2500 x2 - 1375 y2 + 9.35625e+07 v_9_3
   <= 7.75e+07
 top_left_9_3: x1 - x2 + 16125 v_9_3 <= 13000
 top_right_9_3: - x1 + x2 + 8500 v_9_3 <= 13000
 halfplane_9_4: 2500 x1 + 2500 y1 - 2500 x2 - 2500 y2 + 1.228125e+08 v_9_4
   <= 1e+08
 top_left_9_4: x1 - x2 + 13625 v_9_4 <= 13000
 top_right_9_4: - x1 + x2 + 9875 v_9_4 <= 13000
 halfplane_9_5: 1250 y1 - 1250 y2 + 3.5625e+07 v_9_5 <= 2.5e+07
 top_left_9_5: x1 - x2 + 12375 v_9_5 <= 13000
 top_right_9_5: - x1 + x2 + 12375 v_9_5 <= 13000
 halfplane_9_6: - 2500 x1 + 1375 y1 + 2500 x2 - 1375 y2 + 9.075e+07 v_9_6
   <= 7.75e+07
 top_left_9_6: x1 - x2 + 11000 v_9_6 <= 13000
 top_right_9_6: - x1 + x2 + 13625 v_9_6 <= 13000
 left_region_9: - x1 + x2 + 15000 v_l_9 <= 13000
 right_region_9: - x1 + x2 - 17500 v_r_9 >= -13000
 one_region_9: v_l_9 + v_r_9 + v_9_0 + v_9_1 + v_9_3 + v_9_4 + v_9_5
   + v_9_6 = 1
 halfplane_10_0: - 7000 y1 + 7000 y2 + 1.645e+08 v_10_0 <= 1.4e+08
 bottom_left_10_0: x1 - x2 + 9500 v_10_0 <= 13000
 bottom_right_10_0: - x1 + x2 + 9500 v_10_0 <= 13000
 halfplane_10_1: 2500 x1 - 2500 y1 - 2500 x2 + 2500 y2 + 1.175e+08 v_10_1
   <= 1e+08
 bottom_left_10_1: x1 - x2 + 16500 v_10_1 <= 13000
 bottom_right_10_1: - x1 + x2 + 7000 v_10_1 <= 13000
 halfplane_10_3: 5000 x1 + 5000 y1 - 5000 x2 - 5000 y2 + 2.35e+08 v_10_3
   <= 2e+08
 top_left_10_3: x1 - x2 + 14000 v_10_3 <= 13000
 top_right_10_3: - x1 + x2 + 7000 v_10_3 <= 13000
 halfplane_10_4: 2000 y1 - 2000 y2 + 5.2e+07 v_10_4 <= 4e+07
 top_left_10_4: x1 - x2 + 12000 v_10_4 <= 13000
 top_right_10_4: - x1 + x2 + 12000 v_10_4 <= 13000
 halfplane_10_5: - 2500 x1 + 2500 y1 + 2500 x2 - 2500 y2 + 1.175e+08 v_10_5
   <= 1e+08
 top_left_10_5: x1 - x2 + 9500 v_10_5 <= 13000
 top_right_10_5: - x1 + x2 + 14000 v_10_5 <= 13000
 left_region_10: - x1 + x2 + 16500 v_l_10 <= 13000
 right_region_10: - x1 + x2 - 19000 v_r_10 >= -13000
 one_region_10: v_l_10 + v_r_10 + v_10_0 + v_10_1 + v_10_3 + v_10_4
   + v_10_5 = 1
 halfplane_11_0: - 1500 y1 + 1500 y2 + 3.825e+07 v_11_0 <= 3e+07
 bottom_left_11_0: x1 - x2 + 12250 v_11_0 <= 13000
 bottom_right_11_0: - x1 + x2 + 12250 v_11_0 <= 13000
 halfplane_11_1: 2500 x1 - 2500 y1 - 2500 x2 + 2500 y2 + 1.15625e+08 v_11_1
   <= 1e+08
 bottom_left_11_1: x1 - x2 + 13750 v_11_1 <= 13000
 bottom_right_11_1: - x1 + x2 + 9750 v_11_1 <= 13000
 halfplane_11_3: 2500 x1 + 2500 y1 - 2500 x2 - 2500 y2 + 1.10625e+08 v_11_3
   <= 1e+08
 top_left_11_3: x1 - x2 + 13750 v_11_3 <= 13000
 top_right_11_3: - x1 + x2 + 9750 v_11_3 <= 13000
 halfplane_11_4: 1500 y1 - 1500 y2 + 3.525e+07 v_11_4 <= 3e+07
 top_left_11_4: x1 - x2 + 12250 v_11_4 <= 13000
 top_right_11_4: - x1 + x2 + 12250 v_11_4 <= 13000
 left_region_11: - x1 + x2 + 13750 v_l_11 <= 13000
 right_region_11: - x1 + x2 - 16250 v_r_11 >= -13000
 one_region_11: v_l_11 + v_r_11 + v_11_0 + v_11_1 + v_11_3 + v_11_4 = 1
 halfplane_12_0: - 4500 y1 + 4500 y2 + 7.0875e+07 v_12_0 <= 9e+07
 bottom_left_12_0: x1 - x2 + 9750 v_12_0 <= 13000
 bottom_right_12_0: - x1 + x2 + 11750 v_12_0 <= 13000
 halfplane_12_2: 3000 x1 + 1250 y1 - 3000 x2 - 1250 y2 + 9.59375e+07 v_12_2
   <= 8.5e+07
 top_left_12_2: x1 - x2 + 13000 v_12_2 <= 13000
 top_right_12_2: - x1 + x2 + 11750 v_12_2 <= 13000
 halfplane_12_3: 2000 y1 - 2000 y2 + 5.75e+07 v_12_3 <= 4e+07
 top_left_12_3: x1 - x2 + 11000 v_12_3 <= 13000
 top_right_12_3: - x1 + x2 + 13000 v_12_3 <= 13000
 halfplane_12_4: - 3000 x1 + 1250 y1 + 3000 x2 - 1250 y2
   + 1.019375e+08 v_12_4 <= 8.5e+07
 top_left_12_4: x1 - x2 + 9750 v_12_4 <= 13000
 top_right_12_4: - x1 + x2 + 15000 v_12_4 <= 13000
 left_region_12: - x1 + x2 + 16250 v_l_12 <= 13000
 right_region_12: - x1 + x2 - 14250 v_r_12 >= -13000
 one_region_12: v_l_12 + v_r_12 + v_12_0 + v_12_2 + v_12_3 + v_12_4 = 1
 halfplane_13_0: - 6000 y1 + 6000 y2 + 1.095e+08 v_13_0 <= 1.2e+08
 bottom_left_13_0: x1 - x2 + 9000 v_13_0 <= 13000
 bottom_right_13_0: - x1 + x2 + 11000 v_13_0 <= 13000
 halfplane_13_2: 2500 x1 + 1375 y1 - 2500 x2 - 1375 y2
   + 8.696875e+07 v_13_2 <= 7.75e+07
 top_left_13_2: x1 - x2 + 13625 v_13_2 <= 13000
 top_right_13_2: - x1 + x2 + 11000 v_13_2 <= 13000
 halfplane_13_3: 3250 y1 - 3250 y2 + 8.36875e+07 v_13_3 <= 6.5e+07
 top_left_13_3: x1 - x2 + 10375 v_13_3 <= 13000
 top_right_13_3: - x1 + x2 + 12375 v_13_3 <= 13000
 halfplane_13_4: - 2500 x1 + 1375 y1 + 2500 x2 - 1375 y2
   + 9.196875e+07 v_13_4 <= 7.75e+07
 top_left_13_4: x1 - x2 + 9000 v_13_4 <= 13000
 top_right_13_4: - x1 + x2 + 15625 v_13_4 <= 13000
 left_region_13: - x1 + x2 + 17000 v_l_13 <= 13000
 right_region_13: - x1 + x2 - 15000 v_r_13 >= -13000
 one_region_13: v_l_13 + v_r_13 + v_13_0 + v_13_2 + v_13_3 + v_13_4 = 1
 halfplane_14_0: - 1.13687e-13 x1 - 2000 y1 + 1.13687e-13 x2 + 2000 y2
   + 4.15e+07 v_14_0 <= 4e+07
 bottom_left_14_0: x1 - x2 + 7500 v_14_0 <= 13000
 bottom_right_14_0: - x1 + x2 + 16500 v_14_0 <= 13000
 halfplane_14_1: - 7000 y1 + 7000 y2 + 1.4525e+08 v_14_1 <= 1.4e+08
 bottom_left_14_1: x1 - x2 + 9500 v_14_1 <= 13000
 bottom_right_14_1: - x1 + x2 + 9500 v_14_1 <= 13000
 halfplane_14_3: 2500 x1 + 2500 y1 - 2500 x2 - 2500 y2 + 1.10625e+08 v_14_3
   <= 1e+08
 top_left_14_3: x1 - x2 + 14000 v_14_3 <= 13000
 top_right_14_3: - x1 + x2 + 9500 v_14_3 <= 13000
 halfplane_14_4: 4000 y1 - 4000 y2 + 9.3e+07 v_14_4 <= 8e+07
 top_left_14_4: x1 - x2 + 10000 v_14_4 <= 13000
 top_right_14_4: - x1 + x2 + 12000 v_14_4 <= 13000
 halfplane_14_5: - 2500 x1 + 2500 y1 + 2500 x2 - 2500 y2
   + 1.15625e+08 v_14_5 <= 1e+08
 top_left_14_5: x1 - x2 + 7500 v_14_5 <= 13000
 top_right_14_5: - x1 + x2 + 16000 v_14_5 <= 13000
 left_region_14: - x1 + x2 + 18500 v_l_14 <= 13000
 right_region_14: - x1 + x2 - 16500 v_r_14 >= -13000
 one_region_14: v_l_14 + v_r_14 + v_14_0 + v_14_1 + v_14_3 + v_14_4
   + v_14_5 = 1
 halfplane_15_0: - 3500 y1 + 3500 y2 + 7.9625e+07 v_15_0 <= 7e+07
 bottom_left_15_0: x1 - x2 + 10250 v_15_0 <= 13000
 bottom_right_15_0: - x1 + x2 + 12250 v_15_0 <= 13000
 halfplane_15_2: 1.13687e-13 x1 + 2000 y1 - 1.13687e-13 x2 - 2000 y2
   + 4.15e+07 v_15_2 <= 4e+07
 top_left_15_2: x1 - x2 + 11750 v_15_2 <= 13000
 top_right_15_2: - x1 + x2 + 12250 v_15_2 <= 13000
 halfplane_15_3: 1500 y1 - 1500 y2 + 3.1125e+07 v_15_3 <= 3e+07
 top_left_15_3: x1 - x2 + 10250 v_15_3 <= 13000
 top_right_15_3: - x1 + x2 + 14250 v_15_3 <= 13000
 left_region_15: - x1 + x2 + 15750 v_l_15 <= 13000
 right_region_15: - x1 + x2 - 13750 v_r_15 >= -13000
 one_region_15: v_l_15 + v_r_15 + v_15_0 + v_15_2 + v_15_3 = 1
Bounds
 x1 >= 3500
 y1 >= 2000
 x2 >= 3500
 y2 >= 2000
 10000 <= s <= 20000
Binaries
 v_l_0 v_r_0 v_0_0 v_0_1 v_0_2 v_0_3 v_0_4 v_l_1 v_r_1 v_1_0 v_1_1 v_1_2
 v_1_3 v_1_4 v_1_5 v_l_2 v_r_2 v_2_0 v_2_1 v_2_2 v_2_3 v_2_4 v_2_5 v_l_3
 v_r_3 v_3_0 v_3_1 v_3_3 v_3_4 v_l_4 v_r_4 v_4_0 v_4_1 v_4_3 v_4_4 v_4_5
 v_l_5 v_r_5 v_5_0 v_5_1 v_5_3 v_5_4 v_5_5 v_5_6 v_l_6 v_r_6 v_6_0 v_6_1
 v_6_3 v_6_4 v_6_5 v_6_6 v_l_7 v_r_7 v_7_0 v_7_1 v_7_3 v_7_4 v_l_8 v_r_8
 v_8_0 v_8_1 v_8_3 v_8_4 v_8_5 v_l_9 v_r_9 v_9_0 v_9_1 v_9_3 v_9_4 v_9_5
 v_9_6 v_l_10 v_r_10 v_10_0 v_10_1 v_10_3 v_10_4 v_10_5 v_l_11 v_r_11
 v_11_0 v_11_1 v_11_3 v_11_4 v_l_12 v_r_12 v_12_0 v_12_2 v_12_3 v_12_4
 v_l_13 v_r_13 v_13_0 v_13_2 v_13_3 v_13_4 v_l_14 v_r_14 v_14_0 v_14_1
 v_14_3 v_14_4 v_14_5 v_l_15 v_r_15 v_15_0 v_15_2 v_15_3
End
